% demand
num_movements = 29;
loading_factor = [1700, 900, 950, 2000, 1450, 1150, 1400, 1500, 900, 1800, 900, 1300, 1350, 1200, 1050, 1050, 1750, 850, 900, 1950, 1250, 1150, 1800, 1500, 800, 1200, 1450, 1600, 1350];
pickup_time = [0, 0, 0, 0, 0, 2, 4, 4, 4, 5, 5, 7, 7, 7, 8, 8, 8, 8, 9, 10, 10, 10, 12, 12, 12, 12, 13, 13, 13];
delivery_time = [2, 8, 3, 2, 1, 3, 6, 8, 5, 7, 7, 8, 8, 8, 9, 9, 11, 9, 11, 11, 11, 11, 14, 13, 14, 13, 14, 14, 14];

% transporter definition
total_capacity = 7000;
num_decks = 3;
capacity = [3000, 1000, 3000];

% ways out of decks
num_ways_out = 1;
paths_out = array3d(decks, ways_out, decks, [
% ways out of deck d1
2, 3, 0, 

% ways out of deck d2
3, 0, 0, 

% ways out of deck d3
0, 0, 0,	

]);

